2673.88
0 3 9 1 10 11 7 8 5 17 14 2 4 12 13 6 0
0 91 16 46 19 20 35 29 24 25 23 15 22 21 26 27 18 28 0
0 37 44 38 43 42 41 39 34 33 32 36 31 0
0 57 56 55 54 50 51 64 49 47 48 45 60 52 53 0
0 65 66 63 62 61 59 58 67 68 69 0
0 73 74 75 72 84 83 82 70 71 81 78 79 80 76 77 0
0 86 85 93 92 87 95 94 88 89 0
0 97 100 98 99 104 96 106 107 108 101 103 102 105 0
0 122 90 114 118 113 119 117 115 110 129 121 109 111 112 0
0 136 128 131 126 123 124 125 127 132 130 133 40 0
0 142 140 141 143 135 134 139 145 144 137 147 146 138 0
0 148 30 120 116 150 149 0
